100
128
51
15
45
5
26
28
1
11
6
8
57
15
27
39
13
14
12
18
18
27
64
8
29
17
2
38
46
16
49
6
11
4
6
1
21
5
2
28
32
22
20
3
22
20
48
1
31
18
33
15
27
1
15
51
49
47
6
16
12
43
46
59
45
22
46
1
62
41
1
56
15
38
45
64
12
45
59
5
1
52
52
19
60
8
16
1
38
5
37
26
31
9
9
6
63
33
55
40
2
4